* ENCODING=ISO-8859-1
NAME          CPLEX
ROWS
 N  obj1    
 G  c1      
 G  c2      
 G  c3      
 G  c4      
 G  c5      
 G  c6      
 G  c7      
 G  c8      
 G  c9      
 G  c10     
 G  c11     
 G  c12     
 G  c13     
 G  c14     
 G  c15     
 G  c16     
 G  c17     
 G  c18     
 G  c19     
 G  c20     
 G  c21     
 G  c22     
 G  c23     
 G  c24     
 G  c25     
 G  c26     
 G  c27     
 G  c28     
 G  c29     
 G  c30     
 G  c31     
 G  c32     
 G  c33     
 G  c34     
 G  c35     
COLUMNS
    MARK0000  'MARKER'                 'INTORG'
    x1        obj1                            1
    x1        c15                           266
    x2        obj1                            1
    x2        c12                           281
    x2        c35                           690
    x3        obj1                            1
    x3        c17                           358
    x3        c18                           500
    x3        c20                           821
    x3        c27                           758
    x3        c30                           760
    x3        c31                           782
    x4        obj1                            1
    x4        c2                            412
    x4        c6                            798
    x4        c33                           845
    x5        obj1                            1
    x5        c7                            229
    x5        c13                           343
    x5        c15                           625
    x5        c16                           360
    x6        obj1                            1
    x6        c18                           512
    x7        obj1                            1
    x7        c12                           231
    x7        c28                           245
    x8        obj1                            1
    x8        c34                           598
    x8        c35                           514
    x9        obj1                            1
    x9        c21                           630
    x9        c25                           141
    x9        c26                           792
    x9        c27                           644
    x9        c28                           540
    x9        c33                           655
    x10       obj1                            1
    x10       c23                           962
    x10       c35                           648
    x11       obj1                            1
    x11       c14                           163
    x12       obj1                            1
    x12       c2                            918
    x12       c5                            554
    x12       c13                           395
    x12       c26                           274
    x12       c27                           116
    x12       c32                           555
    x12       c33                           245
    x12       c34                           152
    x13       obj1                            1
    x13       c16                           847
    x13       c23                           140
    x13       c32                           507
    x14       obj1                            1
    x14       c2                            281
    x14       c10                           499
    x14       c13                           831
    x14       c18                           781
    x14       c30                           657
    x15       obj1                            1
    x15       c16                           766
    x16       obj1                            1
    x16       c5                            869
    x16       c11                           794
    x16       c27                           371
    x16       c34                           151
    x17       obj1                            1
    x17       c4                            551
    x17       c17                           540
    x18       obj1                            1
    x18       c4                            899
    x18       c5                            267
    x18       c11                           875
    x18       c28                           324
    x18       c30                           619
    x19       obj1                            1
    x19       c1                            948
    x19       c9                            117
    x19       c14                           830
    x19       c20                           301
    x19       c30                           395
    x19       c32                           569
    x19       c34                           401
    x20       obj1                            1
    x20       c11                           582
    x20       c32                           630
    x21       obj1                            1
    x21       c1                            488
    x21       c10                           817
    x21       c16                           866
    x21       c29                           570
    x21       c34                           983
    x22       obj1                            1
    x22       c8                            336
    x22       c25                           942
    x22       c26                           626
    x23       obj1                            1
    x23       c1                            568
    x23       c7                            270
    x23       c19                           368
    x23       c24                           932
    x24       obj1                            1
    x24       c35                           829
    x25       obj1                            1
    x25       c6                            497
    x25       c24                           979
    x26       obj1                            1
    x26       c12                           680
    x26       c20                           571
    x26       c24                           410
    x26       c29                           707
    x26       c35                           223
    x27       obj1                            1
    x27       c7                            727
    x27       c9                            352
    x27       c12                           831
    x27       c24                           628
    x28       obj1                            1
    x28       c4                            930
    x28       c15                           405
    x28       c18                           209
    x28       c22                           810
    x29       obj1                            1
    x29       c9                            539
    x29       c22                           299
    x29       c23                           983
    x29       c24                           819
    x30       obj1                            1
    x30       c11                           501
    x31       obj1                            1
    x31       c9                            504
    x31       c14                           230
    x31       c18                           813
    x31       c29                           184
    x31       c31                           824
    x31       c32                           319
    x31       c35                           849
    x32       obj1                            1
    x32       c9                            360
    x32       c10                           133
    x32       c14                           442
    x32       c22                           933
    x32       c25                           321
    x32       c29                           739
    x33       obj1                            1
    x33       c12                           329
    x33       c22                           413
    x34       obj1                            1
    x34       c6                            760
    x34       c12                           471
    x35       obj1                            1
    x36       obj1                            1
    x36       c9                            222
    x36       c10                           718
    x36       c16                           809
    x36       c30                           716
    x36       c32                           582
    x37       obj1                            1
    x37       c7                            822
    x37       c11                           793
    x37       c31                           701
    x37       c32                           598
    x38       obj1                            1
    x38       c1                            989
    x38       c8                            546
    x38       c9                            713
    x38       c15                           874
    x38       c19                           140
    x39       obj1                            1
    x39       c27                           396
    x39       c32                           571
    x40       obj1                            1
    x40       c19                           816
    x40       c33                           234
    x41       obj1                            1
    x41       c2                            750
    x41       c3                            597
    x41       c10                           841
    x42       obj1                            1
    x42       c18                           304
    x42       c19                           981
    x42       c31                           346
    x43       obj1                            1
    x43       c17                           255
    x43       c19                           813
    x43       c20                           398
    x43       c29                           196
    x43       c31                           404
    x44       obj1                            1
    x44       c4                            730
    x44       c31                           840
    x45       obj1                            1
    x45       c1                            291
    x45       c3                            291
    x45       c5                            331
    x45       c11                           394
    x45       c24                           267
    x46       obj1                            1
    x46       c15                           457
    x46       c29                           258
    x46       c33                           242
    x47       obj1                            1
    x47       c24                           608
    x48       obj1                            1
    x48       c21                           311
    x48       c24                           289
    x48       c34                           843
    x48       c35                           945
    x49       obj1                            1
    x49       c6                            550
    x49       c21                           843
    x49       c30                           333
    x49       c33                           983
    x50       obj1                            1
    x50       c1                            341
    x50       c11                           200
    x50       c21                           945
    x50       c29                           398
    x50       c30                           537
    x51       obj1                            1
    x51       c18                           209
    x51       c22                           341
    x51       c23                           863
    x51       c30                           573
    x51       c35                           667
    x52       obj1                            1
    x52       c18                           401
    x53       obj1                            1
    x53       c1                            639
    x53       c8                            739
    x53       c20                           941
    x53       c31                           173
    x53       c33                           433
    x54       obj1                            1
    x54       c2                            904
    x54       c18                           352
    x54       c19                           895
    x54       c31                           631
    x54       c32                           933
    x55       obj1                            1
    x55       c23                           477
    x55       c28                           191
    x55       c31                           751
    x56       obj1                            1
    x56       c2                            483
    x56       c16                           997
    x57       obj1                            1
    x57       c12                           361
    x57       c25                           240
    x57       c27                           694
    x57       c35                           742
    x58       obj1                            1
    x58       c1                            394
    x58       c6                            120
    x59       obj1                            1
    x59       c3                            982
    x59       c12                           642
    x59       c26                           263
    x59       c30                           660
    x59       c31                           888
    x59       c33                           146
    x60       obj1                            1
    x60       c6                            355
    x60       c12                           820
    x60       c24                           397
    x60       c34                           356
    x61       obj1                            1
    x61       c5                            310
    x61       c11                           980
    x61       c13                           562
    x61       c14                           553
    x61       c17                           675
    x61       c18                           359
    x62       obj1                            1
    x62       c26                           252
    x62       c27                           902
    x62       c30                           145
    x63       obj1                            1
    x63       c17                           121
    x64       obj1                            1
    x64       c4                            447
    x64       c17                           894
    x64       c20                           953
    x64       c23                           432
    x64       c28                           579
    x65       obj1                            1
    x65       c4                            118
    x65       c6                            352
    x65       c15                           535
    x66       obj1                            1
    x66       c4                            671
    x66       c10                           852
    x66       c13                           156
    x66       c28                           236
    x67       obj1                            1
    x67       c1                            528
    x67       c6                            733
    x67       c14                           708
    x67       c19                           926
    x67       c23                           683
    x67       c29                           851
    x67       c32                           394
    x68       obj1                            1
    x68       c25                           600
    x68       c27                           462
    x69       obj1                            1
    x69       c1                            959
    x69       c12                           251
    x69       c26                           332
    x69       c34                           418
    x70       obj1                            1
    x70       c3                            787
    x70       c4                            166
    x70       c8                            395
    x70       c19                           651
    MARK0001  'MARKER'                 'INTEND'
RHS
    rhs       c1                           3073
    rhs       c2                           1874
    rhs       c3                           1329
    rhs       c4                           2256
    rhs       c5                           1166
    rhs       c6                           2083
    rhs       c7                           1024
    rhs       c8                           1008
    rhs       c9                           1404
    rhs       c10                          1930
    rhs       c11                          2560
    rhs       c12                          2449
    rhs       c13                          1144
    rhs       c14                          1463
    rhs       c15                          1581
    rhs       c16                          2323
    rhs       c17                          1422
    rhs       c18                          2220
    rhs       c19                          2795
    rhs       c20                          1993
    rhs       c21                          1365
    rhs       c22                          1398
    rhs       c23                          2270
    rhs       c24                          2665
    rhs       c25                          1122
    rhs       c26                          1270
    rhs       c27                          2172
    rhs       c28                          1058
    rhs       c29                          1952
    rhs       c30                          2698
    rhs       c31                          3170
    rhs       c32                          2829
    rhs       c33                          1892
    rhs       c34                          1951
    rhs       c35                          3054
BOUNDS
 LI bnd       x1        0
 LI bnd       x2        0
 LI bnd       x3        0
 LI bnd       x4        0
 LI bnd       x5        0
 LI bnd       x6        0
 LI bnd       x7        0
 LI bnd       x8        0
 LI bnd       x9        0
 LI bnd       x10       0
 LI bnd       x11       0
 LI bnd       x12       0
 LI bnd       x13       0
 LI bnd       x14       0
 LI bnd       x15       0
 LI bnd       x16       0
 LI bnd       x17       0
 LI bnd       x18       0
 LI bnd       x19       0
 LI bnd       x20       0
 LI bnd       x21       0
 LI bnd       x22       0
 LI bnd       x23       0
 LI bnd       x24       0
 LI bnd       x25       0
 LI bnd       x26       0
 LI bnd       x27       0
 LI bnd       x28       0
 LI bnd       x29       0
 LI bnd       x30       0
 LI bnd       x31       0
 LI bnd       x32       0
 LI bnd       x33       0
 LI bnd       x34       0
 LI bnd       x35       0
 LI bnd       x36       0
 LI bnd       x37       0
 LI bnd       x38       0
 LI bnd       x39       0
 LI bnd       x40       0
 LI bnd       x41       0
 LI bnd       x42       0
 LI bnd       x43       0
 LI bnd       x44       0
 LI bnd       x45       0
 LI bnd       x46       0
 LI bnd       x47       0
 LI bnd       x48       0
 LI bnd       x49       0
 LI bnd       x50       0
 LI bnd       x51       0
 LI bnd       x52       0
 LI bnd       x53       0
 LI bnd       x54       0
 LI bnd       x55       0
 LI bnd       x56       0
 LI bnd       x57       0
 LI bnd       x58       0
 LI bnd       x59       0
 LI bnd       x60       0
 LI bnd       x61       0
 LI bnd       x62       0
 LI bnd       x63       0
 LI bnd       x64       0
 LI bnd       x65       0
 LI bnd       x66       0
 LI bnd       x67       0
 LI bnd       x68       0
 LI bnd       x69       0
 LI bnd       x70       0
ENDATA
